NAME : morphed20-2-10
COMMENT : Generated using the function morphInstances from the R-package netgen (Bossek,2015) - Number of clusters: 2 Alpha: 0.5
TYPE : TSP
DIMENSION : 20
EDGE_WEIGHT_TYPE : EUC_2D
NODE_COORD_SECTION
1 39.0577887532 84.6008089316
2 30.5509499217 64.4873587901
3 41.1477119949 78.5700019975
4 66.5828268368 29.4302942749
5 11.6229260437 51.0561642869
6 25.6329723211 71.300007945
7 26.1015351295 82.7815904234
8 41.1033156336 19.8082222085
9 61.0224471529 56.8001414618
10 50.7663746059 26.3082599643
11 62.7032620509 38.5143606055
12 59.3836076247 8.2365992199
13 35.5152981604 15.3616319336
14 58.5834481313 59.2018264072
15 44.5705883954 32.2758505298
16 39.8786972533 74.3478434473
17 10.7458492062 74.9869671426
18 26.3373391334 90.7555069708
19 36.5386377936 69.3113389856
20 75.3291949656 36.9030836161
EOF
